69
3 1 4
3 2 6
4 2 7
5 4 5
6 5 7
7 1 2
7 2 4
7 4 7
7 5 7
8 0 6
8 1 5
8 6 4
9 0 5
9 4 1
9 5 2
9 6 7
10 0 4
10 3 6
10 7 7
10 9 7
11 7 1
11 9 4
12 0 5
12 1 4
12 2 6
12 4 5
12 7 4
12 8 3
12 9 7
13 3 2
13 4 6
13 6 7
13 7 1
13 9 3
13 10 4
13 11 4
14 2 2
14 5 2
14 7 3
14 13 5
15 1 2
15 4 4
15 5 6
15 6 5
15 7 6
15 9 6
15 10 6
15 11 7
15 13 1
15 14 3
16 1 3
16 5 1
16 6 6
16 8 2
16 9 2
16 11 2
16 15 1
17 2 6
17 4 5
17 7 5
17 8 2
17 9 4
17 15 1
17 16 4
18 1 4
18 2 1
18 5 2
18 8 5
18 9 4
18 10 5
18 11 2
18 15 7
18 16 5
19 0 4
19 2 5
19 3 3
19 4 2
19 5 7
19 6 2
19 8 6
19 9 3
19 11 6
19 12 2
19 15 4
19 16 2
19 17 5
19 18 3
20 0 3
20 2 4
20 5 4
20 10 3
20 11 1
20 13 5
20 15 2
20 17 2
20 18 3
21 6 4
21 7 2
21 9 5
21 11 5
21 15 5
21 16 1
21 18 4
21 19 2
21 20 5
22 0 2
22 1 5
22 2 4
22 5 4
22 7 4
22 8 7
22 10 2
22 11 7
22 13 3
22 16 2
22 18 3
22 20 1
22 21 3
23 0 4
23 1 5
23 3 2
23 4 3
23 10 3
23 12 4
23 14 1
23 15 1
23 16 5
23 20 6
23 22 4
24 2 5
24 5 2
24 7 2
24 8 2
24 11 6
24 12 7
24 14 3
24 15 5
24 16 2
24 19 2
24 20 7
25 1 3
25 2 1
25 7 5
25 8 5
25 11 2
25 12 5
25 15 3
25 16 4
25 18 2
25 20 1
25 21 1
25 22 6
25 23 7
26 2 5
26 4 1
26 5 7
26 6 7
26 7 5
26 8 3
26 10 3
26 12 2
26 13 5
26 15 1
26 16 3
26 18 4
26 19 4
26 20 4
26 22 5
26 23 2
26 24 3
26 25 2
27 0 2
27 1 6
27 5 1
27 6 5
27 7 7
27 11 6
27 12 1
27 13 2
27 16 4
27 20 3
27 21 3
27 26 3
28 0 5
28 1 4
28 3 3
28 5 1
28 7 2
28 10 5
28 14 4
28 19 1
28 20 1
28 22 2
28 23 3
28 26 1
29 0 7
29 1 7
29 3 4
29 4 4
29 7 5
29 9 1
29 11 1
29 12 1
29 13 7
29 14 4
29 17 3
29 20 7
29 21 1
29 23 3
29 24 4
29 25 2
29 27 3
30 1 5
30 2 3
30 4 6
30 5 7
30 10 5
30 11 6
30 12 7
30 13 4
30 14 7
30 17 2
30 21 3
30 22 4
30 26 7
30 29 5
31 2 1
31 5 1
31 6 7
31 8 6
31 9 3
31 11 1
31 12 7
31 14 3
31 16 3
31 21 7
31 22 6
31 24 7
31 25 2
31 26 3
31 27 2
31 28 2
31 29 6
32 2 3
32 3 6
32 4 7
32 6 6
32 7 7
32 8 2
32 9 1
32 10 2
32 11 3
32 12 2
32 13 4
32 19 3
32 24 1
32 27 5
32 29 7
33 0 1
33 1 6
33 2 4
33 4 6
33 6 4
33 9 7
33 14 3
33 16 3
33 17 6
33 19 3
33 20 3
33 23 5
33 25 5
34 1 2
34 2 2
34 4 5
34 5 1
34 6 6
34 9 5
34 11 7
34 13 5
34 15 5
34 17 4
34 18 5
34 19 6
34 20 6
34 21 1
34 22 7
34 23 1
34 24 2
34 26 3
34 28 3
34 30 4
34 31 7
35 3 1
35 7 7
35 8 3
35 10 2
35 12 4
35 14 4
35 19 1
35 23 4
35 24 7
35 28 3
35 29 2
35 32 5
36 0 4
36 2 2
36 3 2
36 4 4
36 5 4
36 7 6
36 8 6
36 11 3
36 16 2
36 17 5
36 20 2
36 21 5
36 23 5
36 25 1
36 26 5
36 27 5
36 28 2
36 29 6
36 31 6
36 34 3
37 0 7
37 1 1
37 2 7
37 3 7
37 4 4
37 5 2
37 6 3
37 7 7
37 8 2
37 9 3
37 10 3
37 12 5
37 15 7
37 16 2
37 18 5
37 19 5
37 21 2
37 24 2
37 25 2
37 30 6
37 34 4
38 3 4
38 4 5
38 5 6
38 15 2
38 16 4
38 18 4
38 27 6
38 29 7
38 31 1
38 32 2
38 33 4
38 34 1
38 37 3
39 0 7
39 1 7
39 2 4
39 3 1
39 6 4
39 7 6
39 8 3
39 12 1
39 15 5
39 16 5
39 17 3
39 18 1
39 22 3
39 23 1
39 24 1
39 25 3
39 26 6
39 27 7
39 28 4
39 29 3
39 30 6
39 32 6
39 33 5
39 36 3
39 37 3
39 38 6
40 3 6
40 4 2
40 11 6
40 12 4
40 13 3
40 17 5
40 19 6
40 20 2
40 21 1
40 22 6
40 24 6
40 27 2
40 28 7
40 29 2
40 30 3
40 31 3
40 32 1
40 34 1
40 36 3
40 37 4
40 38 7
40 39 5
41 3 1
41 5 5
41 7 3
41 9 1
41 10 7
41 11 6
41 16 1
41 17 3
41 20 6
41 22 2
41 25 7
41 28 7
41 30 1
41 31 1
41 32 2
41 34 7
41 37 7
41 39 3
41 40 2
42 0 5
42 2 6
42 4 1
42 5 3
42 7 3
42 9 4
42 10 5
42 11 4
42 12 6
42 14 4
42 15 1
42 17 7
42 18 5
42 19 1
42 21 1
42 22 6
42 27 4
42 29 7
42 32 2
42 34 2
42 35 5
42 37 4
42 38 3
42 39 6
42 40 5
43 0 6
43 1 7
43 2 7
43 4 5
43 5 5
43 8 4
43 9 3
43 11 1
43 12 3
43 14 4
43 16 3
43 17 3
43 19 5
43 22 2
43 25 4
43 27 3
43 34 1
43 37 6
43 39 6
43 41 7
43 42 2
44 0 5
44 3 1
44 4 4
44 5 6
44 6 7
44 9 7
44 14 7
44 15 5
44 17 2
44 19 6
44 21 4
44 22 6
44 23 1
44 25 7
44 27 4
44 30 1
44 32 1
44 33 2
44 36 6
44 38 3
44 41 7
45 0 2
45 4 1
45 5 5
45 6 2
45 8 7
45 10 5
45 13 7
45 14 2
45 15 1
45 21 5
45 25 4
45 26 7
45 28 3
45 29 2
45 31 1
45 34 6
45 35 1
45 36 1
45 39 2
45 42 2
45 44 2
46 4 4
46 7 4
46 8 3
46 9 3
46 11 6
46 13 2
46 15 3
46 17 2
46 19 3
46 20 1
46 21 4
46 23 7
46 24 5
46 30 5
46 32 3
46 34 7
46 36 6
46 37 4
46 43 6
47 0 3
47 1 6
47 3 2
47 4 4
47 6 4
47 7 7
47 8 5
47 9 2
47 14 2
47 15 7
47 17 7
47 18 3
47 25 4
47 26 2
47 27 7
47 28 6
47 29 4
47 30 4
47 31 2
47 32 3
47 33 6
47 36 7
47 41 7
47 45 4
48 1 7
48 3 2
48 9 7
48 10 1
48 12 3
48 14 4
48 16 1
48 17 5
48 22 1
48 23 4
48 24 1
48 26 3
48 28 2
48 29 3
48 30 6
48 31 1
48 32 5
48 35 1
48 36 6
48 39 5
48 41 7
48 42 7
48 43 3
48 45 7
48 46 5
49 1 1
49 3 2
49 4 5
49 5 3
49 6 6
49 7 7
49 8 2
49 12 1
49 14 7
49 15 3
49 16 1
49 20 7
49 22 4
49 25 2
49 26 5
49 28 7
49 30 4
49 32 3
49 34 2
49 35 3
49 37 7
49 40 4
49 42 3
49 44 4
49 45 7
50 1 3
50 2 5
50 5 6
50 6 5
50 11 7
50 12 5
50 14 3
50 15 5
50 16 4
50 17 5
50 21 5
50 26 4
50 27 2
50 28 3
50 29 4
50 30 7
50 31 5
50 32 7
50 34 4
50 35 6
50 36 4
50 37 2
50 38 7
50 39 4
50 40 5
50 41 2
50 43 4
50 44 2
50 45 4
50 48 3
51 2 7
51 3 5
51 6 3
51 9 1
51 10 4
51 14 5
51 15 5
51 17 1
51 18 4
51 20 7
51 22 3
51 23 1
51 25 4
51 28 5
51 29 6
51 30 7
51 36 6
51 37 6
51 39 1
51 42 1
51 45 3
51 46 6
51 47 3
51 50 4
52 0 5
52 2 7
52 3 3
52 5 7
52 6 4
52 7 6
52 8 2
52 10 5
52 11 5
52 12 4
52 13 6
52 16 3
52 20 3
52 21 1
52 22 2
52 24 1
52 25 2
52 28 1
52 32 6
52 34 1
52 37 5
52 38 4
52 39 6
52 44 2
52 45 6
52 46 3
52 48 5
52 51 1
53 0 7
53 1 6
53 3 3
53 6 6
53 8 2
53 9 4
53 12 5
53 14 5
53 15 4
53 16 6
53 17 5
53 20 6
53 29 4
53 30 7
53 32 7
53 35 2
53 38 6
53 43 2
53 45 7
53 46 1
53 47 2
53 50 3
53 51 6
54 0 3
54 3 6
54 6 1
54 7 2
54 11 6
54 12 5
54 17 2
54 19 7
54 23 1
54 28 4
54 30 3
54 31 6
54 32 4
54 33 4
54 34 5
54 38 1
54 40 6
54 41 1
54 44 5
54 47 7
54 48 1
54 49 4
54 51 4
54 53 3
55 1 2
55 3 2
55 4 4
55 5 1
55 6 3
55 7 3
55 16 7
55 18 1
55 20 5
55 26 2
55 33 6
55 34 2
55 36 2
55 37 4
55 38 3
55 39 7
55 40 1
55 43 5
55 47 6
55 48 1
55 49 5
55 51 4
55 53 4
56 0 3
56 1 4
56 2 6
56 4 3
56 9 2
56 12 3
56 13 4
56 14 5
56 15 7
56 17 4
56 18 4
56 21 7
56 23 2
56 24 5
56 29 6
56 30 1
56 31 5
56 32 2
56 35 3
56 37 3
56 40 6
56 43 4
56 44 1
56 49 1
56 50 4
56 55 7
57 5 5
57 7 6
57 10 2
57 12 3
57 13 3
57 19 1
57 23 6
57 25 4
57 26 2
57 27 4
57 31 6
57 33 4
57 35 7
57 37 3
57 38 3
57 41 6
57 44 6
57 52 3
57 53 5
57 54 6
57 56 5
58 3 1
58 4 3
58 7 6
58 8 4
58 11 1
58 12 5
58 15 6
58 18 6
58 19 3
58 20 2
58 21 6
58 27 3
58 28 1
58 31 3
58 32 6
58 34 7
58 36 4
58 39 6
58 40 3
58 44 1
58 45 6
58 47 3
58 55 4
58 56 2
59 3 1
59 5 5
59 6 2
59 7 5
59 9 6
59 13 6
59 15 1
59 17 6
59 18 2
59 20 2
59 21 6
59 22 5
59 25 7
59 27 7
59 30 4
59 31 2
59 32 3
59 33 4
59 36 1
59 38 5
59 39 7
59 40 3
59 44 7
59 49 6
59 50 1
59 51 6
59 52 3
59 54 6
60 0 3
60 1 1
60 3 5
60 5 4
60 7 6
60 8 3
60 9 1
60 13 3
60 14 7
60 15 5
60 17 3
60 24 1
60 25 1
60 26 2
60 30 7
60 31 5
60 34 1
60 41 2
60 43 4
60 44 7
60 45 6
60 46 1
60 47 5
60 52 5
60 53 5
60 54 1
60 55 1
60 57 4
60 58 4
61 1 4
61 2 5
61 4 2
61 5 3
61 6 7
61 7 7
61 8 5
61 9 1
61 13 4
61 15 6
61 17 5
61 22 5
61 23 6
61 24 1
61 26 7
61 28 5
61 29 3
61 30 7
61 31 4
61 39 5
61 41 3
61 42 1
61 43 1
61 44 1
61 45 5
61 48 3
61 51 2
61 52 2
61 56 4
61 60 3
62 0 4
62 3 5
62 7 5
62 9 3
62 12 4
62 13 2
62 14 2
62 16 3
62 21 1
62 25 2
62 26 6
62 27 6
62 29 2
62 33 3
62 38 1
62 40 3
62 44 2
62 45 6
62 46 6
62 48 5
62 49 1
62 51 7
62 52 1
62 54 7
62 56 6
62 57 2
62 58 1
62 61 7
63 0 7
63 4 3
63 7 5
63 9 2
63 11 3
63 12 2
63 14 7
63 15 6
63 17 1
63 18 7
63 20 7
63 21 7
63 23 1
63 24 3
63 26 2
63 27 3
63 30 2
63 33 1
63 34 6
63 35 3
63 38 3
63 40 6
63 41 1
63 43 4
63 44 2
63 45 1
63 46 5
63 47 4
63 52 7
63 54 6
63 57 2
63 58 1
63 59 2
64 1 6
64 2 6
64 4 1
64 11 4
64 13 3
64 14 4
64 15 6
64 16 4
64 17 3
64 19 1
64 20 5
64 21 4
64 23 1
64 24 6
64 25 2
64 26 6
64 30 3
64 31 4
64 32 2
64 33 2
64 35 4
64 36 3
64 37 6
64 38 4
64 39 7
64 40 1
64 41 2
64 42 3
64 43 4
64 45 3
64 46 4
64 52 2
64 57 1
64 58 6
64 60 3
64 61 5
64 63 1
65 2 1
65 3 3
65 4 2
65 7 2
65 8 3
65 11 7
65 12 3
65 14 2
65 15 6
65 16 2
65 18 3
65 20 3
65 21 4
65 22 7
65 24 5
65 25 7
65 26 1
65 31 2
65 32 1
65 35 4
65 37 3
65 38 4
65 40 7
65 42 7
65 44 7
65 48 4
65 52 3
65 53 6
65 56 2
65 57 7
65 58 6
65 59 2
65 60 7
65 61 1
65 62 7
65 64 7
66 0 6
66 1 4
66 5 6
66 7 4
66 8 2
66 9 1
66 10 5
66 11 4
66 13 2
66 14 2
66 15 3
66 18 1
66 19 4
66 20 5
66 21 1
66 22 1
66 23 6
66 25 6
66 26 3
66 27 6
66 28 2
66 30 5
66 35 3
66 39 2
66 40 6
66 43 1
66 47 2
66 48 5
66 49 1
66 53 6
66 54 3
66 55 1
66 59 3
66 60 7
66 62 3
66 65 6
67 1 2
67 3 5
67 7 5
67 8 1
67 12 7
67 14 1
67 15 7
67 16 6
67 17 6
67 20 3
67 21 7
67 22 1
67 24 5
67 26 7
67 27 4
67 28 4
67 30 4
67 35 3
67 36 2
67 37 4
67 39 4
67 41 1
67 42 1
67 43 7
67 44 6
67 45 2
67 46 1
67 47 3
67 48 3
67 50 6
67 51 7
67 52 7
67 53 2
67 54 4
67 57 2
67 58 6
67 59 5
67 63 1
67 65 3
68 0 4
68 1 2
68 3 6
68 4 2
68 5 6
68 8 6
68 9 4
68 10 3
68 14 6
68 17 6
68 18 3
68 21 7
68 23 6
68 26 4
68 27 2
68 29 1
68 34 2
68 40 1
68 42 6
68 43 3
68 44 3
68 47 6
68 48 3
68 53 7
68 54 3
68 56 7
68 57 2
68 58 7
68 61 2
68 62 2
68 64 7
68 67 1
